NAME : in_house_7_16
TYPE : TSP
DIMENSION : 7
EDGE_WEIGHT_TYPE : EXPLICIT
EDGE_WEIGHT_FORMAT : UPPER_ROW
COMMENT : INVERSION_SHIFT=5
EDGE_WEIGHT_SECTION
14
6
26
15
46
35
24
2
37
19
10
24
4
10
16
23
11
41
49
39
46
